41446 36606 
41605 36079 
41818 35457 
41531 36254 
41500 36346 
41833 34933 
40205 38401 
40278 38376 
40693 38192 
39391 38880 
41239 37499 
41274 37328 
39963 38600 
38784 39311 
37726 39662 
37698 39774 
38551 39382 
40622 38306 
36272 40061 
36808 39988 
37627 39888 
37392 39934 
38166 39579 
38478 39471 
39320 38994 
39196 38995 
39348 38882 
37655 39776 
38569 39360 
39124 39085 
40075 38460 
39037 39239 
39829 38758 
40002 38485 
37931 39625 
36910 39962 
39065 39127 
39949 38729 
40122 38456 
40775 38096 
41168 37613 
41302 37075 
39792 38798 
39719 38823 
39557 38844 
39484 38869 
39965 38579 
40546 38345 
40961 38037 
40422 38346 
40983 37698 
41396 36787 
41365 36879 
41403 36732 
41361 36958 
41330 37050 
41183 37572 
